Al O B Ga In
1.0
        7.9381999969         0.0000000000         0.0000000000
        0.0000000000         7.9381999969         0.0000000000
        0.0000000000         0.0000000000        23.8145999908
     Al    O    
     264  96   
Direct
     0.125000000         0.125000000         0.041666668
     0.125000000         0.125000000         0.375000000
     0.125000000         0.125000000         0.708333313
     0.875000000         0.875000000         0.291666657
     0.875000000         0.875000000         0.625000000
     0.875000000         0.875000000         0.958333313
     0.625000000         0.125000000         0.208333328
     0.625000000         0.125000000         0.541666687
     0.625000000         0.125000000         0.875000000
     0.375000000         0.875000000         0.125000000
     0.375000000         0.875000000         0.458333343
     0.375000000         0.875000000         0.791666687
     0.125000000         0.625000000         0.208333328
     0.125000000         0.625000000         0.541666687
     0.125000000         0.625000000         0.875000000
     0.875000000         0.375000000         0.125000000
     0.875000000         0.375000000         0.458333343
     0.875000000         0.375000000         0.791666687
     0.625000000         0.625000000         0.041666668
     0.625000000         0.625000000         0.375000000
     0.625000000         0.625000000         0.708333313
     0.375000000         0.375000000         0.291666657
     0.375000000         0.375000000         0.625000000
     0.375000000         0.375000000         0.958333313
     0.000000000         0.000000000         0.000000000
     0.000000000         0.000000000         0.333333343
     0.000000000         0.000000000         0.666666687
     0.750000000         0.250000000         0.166666672
     0.750000000         0.250000000         0.500000000
     0.750000000         0.250000000         0.833333313
     0.250000000         0.750000000         0.166666672
     0.250000000         0.750000000         0.500000000
     0.250000000         0.750000000         0.833333313
     0.250000000         0.500000000         0.250000000
     0.250000000         0.500000000         0.583333313
     0.250000000         0.500000000         0.916666687
     0.750000000         0.500000000         0.083333336
     0.750000000         0.500000000         0.416666657
     0.750000000         0.500000000         0.750000000
     0.500000000         0.750000000         0.083333336
     0.500000000         0.750000000         0.416666657
     0.500000000         0.750000000         0.750000000
     0.500000000         0.250000000         0.250000000
     0.500000000         0.250000000         0.583333313
     0.500000000         0.250000000         0.916666687
     0.000000000         0.500000000         0.166666672
     0.000000000         0.500000000         0.500000000
     0.000000000         0.500000000         0.833333313
     0.750000000         0.750000000         0.000000000
     0.750000000         0.750000000         0.333333343
     0.750000000         0.750000000         0.666666687
     0.250000000         0.250000000         0.000000000
     0.250000000         0.250000000         0.333333343
     0.250000000         0.250000000         0.666666687
     0.250000000         0.000000000         0.083333336
     0.250000000         0.000000000         0.416666657
     0.250000000         0.000000000         0.750000000
     0.750000000         0.000000000         0.250000000
     0.750000000         0.000000000         0.583333313
     0.750000000         0.000000000         0.916666687
     0.500000000         0.000000000         0.166666672
     0.500000000         0.000000000         0.500000000
     0.500000000         0.000000000         0.833333313
     0.000000000         0.750000000         0.250000000
     0.000000000         0.750000000         0.583333313
     0.000000000         0.750000000         0.916666687
     0.000000000         0.250000000         0.083333336
     0.000000000         0.250000000         0.416666657
     0.000000000         0.250000000         0.750000000
     0.500000000         0.500000000         0.000000000
     0.500000000         0.500000000         0.333333343
     0.500000000         0.500000000         0.666666687
     0.876999974         0.125000000         0.041666668
     0.876999974         0.125000000         0.375000000
     0.876999974         0.125000000         0.708333313
     0.123000003         0.875000000         0.291666657
     0.123000003         0.875000000         0.625000000
     0.123000003         0.875000000         0.958333313
     0.873000026         0.125000000         0.208333328
     0.873000026         0.125000000         0.541666687
     0.873000026         0.125000000         0.875000000
     0.127000004         0.875000000         0.125000000
     0.127000004         0.875000000         0.458333343
     0.127000004         0.875000000         0.791666687
     0.372999996         0.625000000         0.208333328
     0.372999996         0.625000000         0.541666687
     0.372999996         0.625000000         0.875000000
     0.626999974         0.375000000         0.125000000
     0.626999974         0.375000000         0.458333343
     0.626999974         0.375000000         0.791666687
     0.377000004         0.625000000         0.041666668
     0.377000004         0.625000000         0.375000000
     0.377000004         0.625000000         0.708333313
     0.623000026         0.375000000         0.291666657
     0.623000026         0.375000000         0.625000000
     0.623000026         0.375000000         0.958333313
     0.125000000         0.876999974         0.041666668
     0.125000000         0.876999974         0.375000000
     0.125000000         0.876999974         0.708333313
     0.875000000         0.123000003         0.291666657
     0.875000000         0.123000003         0.625000000
     0.875000000         0.123000003         0.958333313
     0.625000000         0.873000026         0.041666668
     0.625000000         0.873000026         0.375000000
     0.625000000         0.873000026         0.708333313
     0.375000000         0.127000004         0.291666657
     0.375000000         0.127000004         0.625000000
     0.375000000         0.127000004         0.958333313
     0.625000000         0.372999996         0.208333328
     0.625000000         0.372999996         0.541666687
     0.625000000         0.372999996         0.875000000
     0.375000000         0.626999974         0.125000000
     0.375000000         0.626999974         0.458333343
     0.375000000         0.626999974         0.791666687
     0.125000000         0.377000004         0.208333328
     0.125000000         0.377000004         0.541666687
     0.125000000         0.377000004         0.875000000
     0.875000000         0.623000026         0.125000000
     0.875000000         0.623000026         0.458333343
     0.875000000         0.623000026         0.791666687
     0.125000000         0.125000000         0.292333335
     0.125000000         0.125000000         0.625666678
     0.125000000         0.125000000         0.958999991
     0.875000000         0.875000000         0.041000001
     0.875000000         0.875000000         0.374333322
     0.875000000         0.875000000         0.707666695
     0.125000000         0.625000000         0.291000009
     0.125000000         0.625000000         0.624333322
     0.125000000         0.625000000         0.957666695
     0.875000000         0.375000000         0.042333335
     0.875000000         0.375000000         0.375666678
     0.875000000         0.375000000         0.708999991
     0.625000000         0.625000000         0.124333329
     0.625000000         0.625000000         0.457666665
     0.625000000         0.625000000         0.791000009
     0.375000000         0.375000000         0.208999991
     0.375000000         0.375000000         0.542333305
     0.375000000         0.375000000         0.875666678
     0.625000000         0.125000000         0.125666663
     0.625000000         0.125000000         0.458999991
     0.625000000         0.125000000         0.792333305
     0.375000000         0.875000000         0.207666680
     0.375000000         0.875000000         0.541000009
     0.375000000         0.875000000         0.874333322
     0.875000000         0.127000004         0.125000000
     0.875000000         0.127000004         0.458333343
     0.875000000         0.127000004         0.791666687
     0.125000000         0.873000026         0.208333328
     0.125000000         0.873000026         0.541666687
     0.125000000         0.873000026         0.875000000
     0.375000000         0.623000026         0.291666657
     0.375000000         0.623000026         0.625000000
     0.375000000         0.623000026         0.958333313
     0.625000000         0.377000004         0.041666668
     0.625000000         0.377000004         0.375000000
     0.625000000         0.377000004         0.708333313
     0.623000026         0.875000000         0.125000000
     0.623000026         0.875000000         0.458333343
     0.623000026         0.875000000         0.791666687
     0.377000004         0.125000000         0.208333328
     0.377000004         0.125000000         0.541666687
     0.377000004         0.125000000         0.875000000
     0.127000004         0.375000000         0.291666657
     0.127000004         0.375000000         0.625000000
     0.127000004         0.375000000         0.958333313
     0.873000026         0.625000000         0.041666668
     0.873000026         0.625000000         0.375000000
     0.873000026         0.625000000         0.708333313
     0.875000000         0.375000000         0.207666680
     0.875000000         0.375000000         0.541000009
     0.875000000         0.375000000         0.874333322
     0.125000000         0.625000000         0.125666663
     0.125000000         0.625000000         0.458999991
     0.125000000         0.625000000         0.792333305
     0.375000000         0.875000000         0.042333335
     0.375000000         0.875000000         0.375666678
     0.375000000         0.875000000         0.708999991
     0.625000000         0.125000000         0.291000009
     0.625000000         0.125000000         0.624333322
     0.625000000         0.125000000         0.957666695
     0.876999974         0.625000000         0.208333328
     0.876999974         0.625000000         0.541666687
     0.876999974         0.625000000         0.875000000
     0.123000003         0.375000000         0.125000000
     0.123000003         0.375000000         0.458333343
     0.123000003         0.375000000         0.791666687
     0.372999996         0.125000000         0.041666668
     0.372999996         0.125000000         0.375000000
     0.372999996         0.125000000         0.708333313
     0.626999974         0.875000000         0.291666657
     0.626999974         0.875000000         0.625000000
     0.626999974         0.875000000         0.958333313
     0.125000000         0.125000000         0.124333329
     0.125000000         0.125000000         0.457666665
     0.125000000         0.125000000         0.791000009
     0.875000000         0.875000000         0.208999991
     0.875000000         0.875000000         0.542333305
     0.875000000         0.875000000         0.875666678
     0.625000000         0.625000000         0.292333335
     0.625000000         0.625000000         0.625666678
     0.625000000         0.625000000         0.958999991
     0.375000000         0.375000000         0.041000001
     0.375000000         0.375000000         0.374333322
     0.375000000         0.375000000         0.707666695
     0.875000000         0.626999974         0.291666657
     0.875000000         0.626999974         0.625000000
     0.875000000         0.626999974         0.958333313
     0.125000000         0.372999996         0.041666668
     0.125000000         0.372999996         0.375000000
     0.125000000         0.372999996         0.708333313
     0.375000000         0.123000003         0.125000000
     0.375000000         0.123000003         0.458333343
     0.375000000         0.123000003         0.791666687
     0.625000000         0.876999974         0.208333328
     0.625000000         0.876999974         0.541666687
     0.625000000         0.876999974         0.875000000
     0.500000000         0.500000000         0.166666672
     0.500000000         0.500000000         0.500000000
     0.500000000         0.500000000         0.833333313
     0.250000000         0.750000000         0.000000000
     0.250000000         0.750000000         0.333333343
     0.250000000         0.750000000         0.666666687
     0.750000000         0.250000000         0.000000000
     0.750000000         0.250000000         0.333333343
     0.750000000         0.250000000         0.666666687
     0.750000000         0.000000000         0.083333336
     0.750000000         0.000000000         0.416666657
     0.750000000         0.000000000         0.750000000
     0.250000000         0.000000000         0.250000000
     0.250000000         0.000000000         0.583333313
     0.250000000         0.000000000         0.916666687
     0.000000000         0.250000000         0.250000000
     0.000000000         0.250000000         0.583333313
     0.000000000         0.250000000         0.916666687
     0.000000000         0.750000000         0.083333336
     0.000000000         0.750000000         0.416666657
     0.000000000         0.750000000         0.750000000
     0.500000000         0.000000000         0.000000000
     0.500000000         0.000000000         0.333333343
     0.500000000         0.000000000         0.666666687
     0.250000000         0.250000000         0.166666672
     0.250000000         0.250000000         0.500000000
     0.250000000         0.250000000         0.833333313
     0.750000000         0.750000000         0.166666672
     0.750000000         0.750000000         0.500000000
     0.750000000         0.750000000         0.833333313
     0.750000000         0.500000000         0.250000000
     0.750000000         0.500000000         0.583333313
     0.750000000         0.500000000         0.916666687
     0.250000000         0.500000000         0.083333336
     0.250000000         0.500000000         0.416666657
     0.250000000         0.500000000         0.750000000
     0.000000000         0.500000000         0.000000000
     0.000000000         0.500000000         0.333333343
     0.000000000         0.500000000         0.666666687
     0.500000000         0.250000000         0.083333336
     0.500000000         0.250000000         0.416666657
     0.500000000         0.250000000         0.750000000
     0.500000000         0.750000000         0.250000000
     0.500000000         0.750000000         0.583333313
     0.500000000         0.750000000         0.916666687
     0.000000000         0.000000000         0.166666672
     0.000000000         0.000000000         0.500000000
     0.000000000         0.000000000         0.833333313
     0.256729990         0.256729990         0.085576661
     0.256729990         0.256729990         0.418909997
     0.256729990         0.256729990         0.752243340
     0.743270040         0.743270040         0.247756675
     0.743270040         0.743270040         0.581090033
     0.743270040         0.743270040         0.914423347
     0.493270010         0.993270040         0.252243310
     0.493270010         0.993270040         0.585576653
     0.493270010         0.993270040         0.918909967
     0.506729960         0.006729990         0.081090003
     0.506729960         0.006729990         0.414423347
     0.506729960         0.006729990         0.747756660
     0.993270040         0.756729960         0.164423332
     0.993270040         0.756729960         0.497756660
     0.993270040         0.756729960         0.831090033
     0.006729990         0.243270010         0.168909982
     0.006729990         0.243270010         0.502243340
     0.006729990         0.243270010         0.835576653
     0.756729960         0.493270010         0.331090003
     0.756729960         0.493270010         0.664423347
     0.756729960         0.493270010         0.997756660
     0.243270010         0.506729960         0.002243330
     0.243270010         0.506729960         0.335576653
     0.243270010         0.506729960         0.668909967
     0.006729990         0.506729960         0.081090003
     0.006729990         0.506729960         0.414423347
     0.006729990         0.506729960         0.747756660
     0.993270040         0.493270010         0.252243310
     0.993270040         0.493270010         0.585576653
     0.993270040         0.493270010         0.918909967
     0.506729960         0.243270010         0.002243330
     0.506729960         0.243270010         0.335576653
     0.506729960         0.243270010         0.668909967
     0.493270010         0.756729960         0.331090003
     0.493270010         0.756729960         0.664423347
     0.493270010         0.756729960         0.997756660
     0.243270010         0.006729990         0.168909982
     0.243270010         0.006729990         0.502243340
     0.243270010         0.006729990         0.835576653
     0.756729960         0.993270040         0.164423332
     0.756729960         0.993270040         0.497756660
     0.756729960         0.993270040         0.831090033
     0.256729990         0.756729960         0.252243310
     0.256729990         0.756729960         0.585576653
     0.256729990         0.756729960         0.918909967
     0.743270040         0.243270010         0.081090003
     0.743270040         0.243270010         0.414423347
     0.743270040         0.243270010         0.747756660
     0.493270010         0.493270010         0.085576661
     0.493270010         0.493270010         0.418909997
     0.493270010         0.493270010         0.752243340
     0.506729960         0.506729960         0.247756675
     0.506729960         0.506729960         0.581090033
     0.506729960         0.506729960         0.914423347
     0.993270040         0.256729990         0.331090003
     0.993270040         0.256729990         0.664423347
     0.993270040         0.256729990         0.997756660
     0.006729990         0.743270040         0.002243330
     0.006729990         0.743270040         0.335576653
     0.006729990         0.743270040         0.668909967
     0.006729990         0.006729990         0.247756675
     0.006729990         0.006729990         0.581090033
     0.006729990         0.006729990         0.914423347
     0.993270040         0.993270040         0.085576661
     0.993270040         0.993270040         0.418909997
     0.993270040         0.993270040         0.752243340
     0.506729960         0.743270040         0.168909982
     0.506729960         0.743270040         0.502243340
     0.506729960         0.743270040         0.835576653
     0.493270010         0.256729990         0.164423332
     0.493270010         0.256729990         0.497756660
     0.493270010         0.256729990         0.831090033
     0.756729960         0.256729990         0.252243310
     0.756729960         0.256729990         0.585576653
     0.756729960         0.256729990         0.918909967
     0.243270010         0.743270040         0.081090003
     0.243270010         0.743270040         0.414423347
     0.243270010         0.743270040         0.747756660
     0.256729990         0.493270010         0.164423332
     0.256729990         0.493270010         0.497756660
     0.256729990         0.493270010         0.831090033
     0.743270040         0.506729960         0.168909982
     0.743270040         0.506729960         0.502243340
     0.743270040         0.506729960         0.835576653
     0.743270040         0.006729990         0.002243330
     0.743270040         0.006729990         0.335576653
     0.743270040         0.006729990         0.668909967
     0.256729990         0.993270040         0.331090003
     0.256729990         0.993270040         0.664423347
     0.256729990         0.993270040         0.997756660
     0.756729960         0.756729960         0.085576661
     0.756729960         0.756729960         0.418909997
     0.756729960         0.756729960         0.752243340
     0.243270010         0.243270010         0.247756675
     0.243270010         0.243270010         0.581090033
     0.243270010         0.243270010         0.914423347
